
Gurobi 11.0.1 (win64) logging started Tue May 14 18:25:28 2024

Set parameter LogFile to value "output/solver_log21.txt"
Gurobi Optimizer version 11.0.1 build v11.0.1rc0 (win64 - Windows 11.0 (22631.2))

CPU model: 11th Gen Intel(R) Core(TM) i7-1165G7 @ 2.80GHz, instruction set [SSE2|AVX|AVX2|AVX512]
Thread count: 4 physical cores, 8 logical processors, using up to 8 threads

Optimize a model with 1029 rows, 172 columns and 19303 nonzeros
Model fingerprint: 0xc6cd28bc
Variable types: 88 continuous, 84 integer (84 binary)
Coefficient statistics:
  Matrix range     [4e-01, 1e+05]
  Objective range  [1e+00, 1e+02]
  Bounds range     [1e+00, 1e+00]
  RHS range        [1e-02, 1e+05]

User MIP start produced solution with objective 38085.5 (0.00s)
User MIP start produced solution with objective 39288.3 (0.00s)
User MIP start produced solution with objective 39288.3 (0.00s)
Loaded user MIP start with objective 39288.3

Presolve removed 65 rows and 67 columns
Presolve time: 0.02s
Presolved: 964 rows, 105 columns, 18820 nonzeros
Variable types: 79 continuous, 26 integer (25 binary)

Root relaxation: objective 3.982671e+04, 248 iterations, 0.01 seconds (0.03 work units)

    Nodes    |    Current Node    |     Objective Bounds      |     Work
 Expl Unexpl |  Obj  Depth IntInf | Incumbent    BestBd   Gap | It/Node Time

     0     0 39826.7077    0    4 39288.3119 39826.7077  1.37%     -    0s
     0     0          -    0      39288.3119 39289.1339  0.00%     -    0s

Explored 1 nodes (251 simplex iterations) in 0.07 seconds (0.11 work units)
Thread count was 8 (of 8 available processors)

Solution count 3: 39288.3 39288.3 38085.5 

Optimal solution found (tolerance 1.00e-04)
Best objective 3.928831192901e+04, best bound 3.928913388903e+04, gap 0.0021%
